NAME          ClpDefau  FREE
ROWS
 N  OBJROW
 L  ZMUNI1_PCT
 L  ZMUNI2_PCT
 L  ZMUNI3_PCT
 L  ZMUNI4_PCT
 L  ZMUNI5_PCT
 L  ZMUNI6_PCT
 L  ZMUNI7_PCT
 L  ZMUNI8_PCT
 L  ZMUNI9_PCT
COLUMNS
    QMUNI1 OBJROW 1.          
    QMUNI1 ZMUNI1_PCT 30592.9184  
    QMUNI1 ZMUNI2_PCT 2178.5736   
    QMUNI1 ZMUNI3_PCT 4646.1105   
    QMUNI1 ZMUNI4_PCT 3439.3311   
    QMUNI1 ZMUNI5_PCT 801.2772    
    QMUNI1 ZMUNI6_PCT 951.5762    
    QMUNI1 ZMUNI7_PCT 2656.9366   
    QMUNI1 ZMUNI8_PCT 2112.5793   
    QMUNI1 ZMUNI9_PCT 1210.0219   
    QMUNI2 OBJROW 1.          
    QMUNI2 ZMUNI1_PCT 2582.5501   
    QMUNI2 ZMUNI2_PCT 36571.3119  
    QMUNI2 ZMUNI3_PCT 3384.3994   
    QMUNI2 ZMUNI4_PCT 3409.5764   
    QMUNI2 ZMUNI5_PCT 1193.8095   
    QMUNI2 ZMUNI6_PCT 1262.8555   
    QMUNI2 ZMUNI7_PCT 2718.7347   
    QMUNI2 ZMUNI8_PCT 2849.1974   
    QMUNI2 ZMUNI9_PCT 2880.2871   
    QMUNI3 OBJROW 1.          
    QMUNI3 ZMUNI1_PCT 4462.4329   
    QMUNI3 ZMUNI2_PCT 2968.0252   
    QMUNI3 ZMUNI3_PCT 31700.1342  
    QMUNI3 ZMUNI4_PCT 5319.5954   
    QMUNI3 ZMUNI5_PCT 280.9525    
    QMUNI3 ZMUNI6_PCT 443.84      
    QMUNI3 ZMUNI7_PCT 2137.3749   
    QMUNI3 ZMUNI8_PCT 1989.3646   
    QMUNI3 ZMUNI9_PCT 1386.2609   
    QMUNI4 OBJROW 1.          
    QMUNI4 ZMUNI1_PCT 3532.219    
    QMUNI4 ZMUNI2_PCT 3291.893    
    QMUNI4 ZMUNI3_PCT 5720.9014   
    QMUNI4 ZMUNI4_PCT 110764.885  
    QMUNI4 ZMUNI5_PCT 212.6694    
    QMUNI4 ZMUNI6_PCT 378.9902    
    QMUNI4 ZMUNI7_PCT 1759.7198   
    QMUNI4 ZMUNI8_PCT 1663.5895   
    QMUNI4 ZMUNI9_PCT 1150.3219   
    QMUNI5 OBJROW 1.          
    QMUNI5 ZMUNI1_PCT 336.6471    
    QMUNI5 ZMUNI2_PCT 181.1981    
    QMUNI5 ZMUNI3_PCT 275.0396    
    QMUNI5 ZMUNI4_PCT 237.8464    
    QMUNI5 ZMUNI5_PCT 37876.7014  
    QMUNI5 ZMUNI6_PCT 3170.2042   
    QMUNI5 ZMUNI7_PCT 567.2455    
    QMUNI5 ZMUNI8_PCT 334.9304    
    QMUNI5 ZMUNI9_PCT 111.7706    
    QMUNI6 OBJROW 1.          
    QMUNI6 ZMUNI1_PCT 510.0251    
    QMUNI6 ZMUNI2_PCT 294.3038    
    QMUNI6 ZMUNI3_PCT 426.1016    
    QMUNI6 ZMUNI4_PCT 352.478     
    QMUNI6 ZMUNI5_PCT 3286.9339   
    QMUNI6 ZMUNI6_PCT 34735.1074  
    QMUNI6 ZMUNI7_PCT 757.2174    
    QMUNI6 ZMUNI8_PCT 431.8237    
    QMUNI6 ZMUNI9_PCT 217.4377    
    QMUNI7 OBJROW 1.          
    QMUNI7 ZMUNI1_PCT 1973.7244   
    QMUNI7 ZMUNI2_PCT 1369.2855   
    QMUNI7 ZMUNI3_PCT 1788.7115   
    QMUNI7 ZMUNI4_PCT 1423.645    
    QMUNI7 ZMUNI5_PCT 868.9881    
    QMUNI7 ZMUNI6_PCT 1093.6737   
    QMUNI7 ZMUNI7_PCT 35157.0129  
    QMUNI7 ZMUNI8_PCT 3424.4537   
    QMUNI7 ZMUNI9_PCT 1775.7415   
    QMUNI8 OBJROW 1.          
    QMUNI8 ZMUNI1_PCT 1671.4096   
    QMUNI8 ZMUNI2_PCT 1484.6801   
    QMUNI8 ZMUNI3_PCT 1673.6984   
    QMUNI8 ZMUNI4_PCT 1367.3783   
    QMUNI8 ZMUNI5_PCT 980.9494    
    QMUNI8 ZMUNI6_PCT 1053.2379   
    QMUNI8 ZMUNI7_PCT 3503.7994   
    QMUNI8 ZMUNI8_PCT 31470.8709  
    QMUNI8 ZMUNI9_PCT 2072.1435   
    QMUNI9 OBJROW 1.          
    QMUNI9 ZMUNI1_PCT 560.3791    
    QMUNI9 ZMUNI2_PCT 962.2573    
    QMUNI9 ZMUNI3_PCT 676.3458    
    QMUNI9 ZMUNI4_PCT 614.7385    
    QMUNI9 ZMUNI5_PCT  -15.4495   
    QMUNI9 ZMUNI6_PCT 69.2368     
    QMUNI9 ZMUNI7_PCT 786.2091    
    QMUNI9 ZMUNI8_PCT 1322.937    
    QMUNI9 ZMUNI9_PCT 29232.5973  
RHS
    RHS ZMUNI1_PCT 0.71318152  
    RHS ZMUNI2_PCT 0.0328611553
    RHS ZMUNI3_PCT 0.2365579847
    RHS ZMUNI4_PCT  -1.53155533
    RHS ZMUNI5_PCT  -0.23087062
    RHS ZMUNI6_PCT 0.4435211859
    RHS ZMUNI7_PCT 0.1781843308
    RHS ZMUNI8_PCT 0.0110354118
    RHS ZMUNI9_PCT  -0.50748726
BOUNDS
 LO BOUND QMUNI1 -0.000608452
 UP BOUND QMUNI1      1.1e+10
 LO BOUND QMUNI2 -0.000447969
 UP BOUND QMUNI2      1.1e+10
 LO BOUND QMUNI3 -0.000511521
 UP BOUND QMUNI3      1.1e+10
 LO BOUND QMUNI4 -0.000204057
 UP BOUND QMUNI4      1.1e+10
 LO BOUND QMUNI5 -0.000323967
 UP BOUND QMUNI5      1.1e+10
 LO BOUND QMUNI6 -0.000446179
 UP BOUND QMUNI6      1.1e+10
 LO BOUND QMUNI7 -0.000138994
 UP BOUND QMUNI7      1.1e+10
 LO BOUND QMUNI8 -0.00026178 
 UP BOUND QMUNI8      1.1e+10
 LO BOUND QMUNI9 -0.000281435
 UP BOUND QMUNI9      1.1e+10
ENDATA
